132
10000000
2132057
192259
1695734
2061177
2050287
2226076
1216431
409093
675007
1177806
614273
746753
712244
1248045
1395764
471022
163002
784403
141865
1061151
2496882
2270096
963893
365664
609576
2310031
970566
2023869
577896
2353587
1241739
471143
959333
476391
929499
1342733
2231245
716349
2074276
2330584
1204407
1957070
453724
142482
1734348
1970854
376806
947133
2172278
1880501
653257
1003082
542938
386368
379637
2207181
2234620
2156983
952580
2254565
292571
1785882
1868333
753716
886747
687385
891253
1195295
2050122
2470665
1283588
753318
184125
806554
2023589
105697
63826
1570054
954856
1408502
661386
1092556
1171928
2073837
201627
740240
1448724
729542
1865501
2650
1675197
154065
1821322
39428
558075
372
1673225
1642176
138674
1464838
1822041
543901
192928
18802
2196548
1560129
1671139
313316
693413
88958
83128
1294286
2463890
521939
1584716
2301699
121704
306444
400562
890834
2466518
1400242
1142588
1897913
2474250
906329
50332
2246075
1186819
160760
1276624
29117
